NAME : euro-night-0000040.instance.-42935452.tour
COMMENT : Length = -42935452
COMMENT : Found by LKH [Keld Helsgaun] Tue May 21 17:03:04 2019
TYPE : TOUR
DIMENSION : 40
TOUR_SECTION
1
4
5
16
23
22
11
20
24
15
25
12
14
17
27
31
28
32
26
35
19
30
8
40
39
38
37
34
21
33
10
29
13
36
18
3
9
7
6
2
-1
EOF
